30
first 10 waters of w20_isomer1
 O    2.19756413       2.30645657       2.12398648
 H    1.30374396       2.67852998       2.14887738
 H    2.77602649       2.98882961       2.48710012
 O  -0.446642250       3.18157983     -0.553412318
 H  -0.294790566       4.09050608     -0.841292858
 H   0.405002892       2.72651124     -0.635274589
 O  -0.371120274       3.40200686       2.21183610
 H  -0.776223004       2.65618086       2.67454791
 H  -0.552393317       3.32637596       1.26568747
 O  -0.344809651       2.19895148       6.16216040
 H  -0.799917400       1.92929876       5.35409737
 H  -0.216623634       3.15416622       6.11619949
 O    2.97632003       4.44283104      -1.21666169
 H    2.13466644       4.88871813      -1.37117922
 H    2.76599479       3.50445747      -1.12249064
 O    4.16477871       5.80204582      0.813909113
 H    3.81304598       5.27708006       7.27024004E-02
 H    4.95197010       6.23447180      0.493922502
 O   -1.12275231       1.15836358       3.63779879
 H   -1.67120850      0.587195158       3.08564949
 H  -0.245801628      0.747786403       3.66580105
 O   0.566819966       4.92840958       6.15334225
 H    1.46272981       4.54431629       6.13453388
 H   0.518503189       5.47743940       6.93166018
 O    2.99093223       3.72968745       5.88431597
 H    3.32716727       3.93724680       5.00251436
 H    2.86334229       2.77451253       5.92706394
 O   0.381184578      -1.53543997       1.63772929
 H  -0.556514800      -1.34652114       1.76359665
 H   0.843591511      -1.10289204       2.36837602
