15
first 5 waters of w20_isomer1
 O    2.19756413       2.30645657       2.12398648
 H    1.30374396       2.67852998       2.14887738
 H    2.77602649       2.98882961       2.48710012
 O  -0.446642250       3.18157983     -0.553412318
 H  -0.294790566       4.09050608     -0.841292858
 H   0.405002892       2.72651124     -0.635274589
 O  -0.371120274       3.40200686       2.21183610
 H  -0.776223004       2.65618086       2.67454791
 H  -0.552393317       3.32637596       1.26568747
 O  -0.344809651       2.19895148       6.16216040
 H  -0.799917400       1.92929876       5.35409737
 H  -0.216623634       3.15416622       6.11619949
 O    2.97632003       4.44283104      -1.21666169
 H    2.13466644       4.88871813      -1.37117922
 H    2.76599479       3.50445747      -1.12249064
